NAME PortOpt_n10_m4_inst_0
ROWS
 N  OBJ
 E  budget  
 G  return  
 L  uncertain_risk
 L  fixed_risk
COLUMNS
    asset[0]  budget    1
    asset[0]  return    4.1842355510194631e+00
    asset[1]  budget    1
    asset[1]  return    4.0724022089148786e+00
    asset[2]  budget    1
    asset[2]  return    4.9490744165457627e+00
    asset[3]  budget    1
    asset[3]  return    4.3484342381825698e+00
    asset[4]  budget    1
    asset[4]  return    1.8653052583171563e+00
    asset[5]  budget    1
    asset[5]  return    4.8063372081477285e+00
    asset[6]  budget    1
    asset[6]  return    4.6710194173599007e+00
    asset[7]  budget    1
    asset[7]  return    2.0298181312572847e+00
    asset[8]  budget    1
    asset[8]  return    2.6545557685164098e+00
    asset[9]  budget    1
    asset[9]  return    3.3017993039167033e+00
    return_var  OBJ       -1
    return_var  return    -1
    uncertain_risk_var  OBJ       1
    uncertain_risk_var  uncertain_risk  -1
    fixed_risk_var  OBJ       1
    fixed_risk_var  fixed_risk  -1
RHS
    RHS1      budget    1
BOUNDS
QCMATRIX   uncertain_risk
    asset[0]  asset[0]  6.1555879170776193e-03
    asset[0]  asset[1]  -1.2018489999977351e-02
    asset[1]  asset[0]  -1.2018489999977351e-02
    asset[0]  asset[2]  -4.4669110461371467e-03
    asset[2]  asset[0]  -4.4669110461371467e-03
    asset[0]  asset[3]  1.2387884353849124e-02
    asset[3]  asset[0]  1.2387884353849124e-02
    asset[0]  asset[4]  -5.3269492752398302e-03
    asset[4]  asset[0]  -5.3269492752398302e-03
    asset[0]  asset[5]  2.2542377167350147e-03
    asset[5]  asset[0]  2.2542377167350147e-03
    asset[0]  asset[6]  6.2294107193763531e-03
    asset[6]  asset[0]  6.2294107193763531e-03
    asset[0]  asset[7]  2.0885305860557325e-03
    asset[7]  asset[0]  2.0885305860557325e-03
    asset[0]  asset[8]  -8.4016451789051330e-03
    asset[8]  asset[0]  -8.4016451789051330e-03
    asset[0]  asset[9]  2.1558911243597535e-03
    asset[9]  asset[0]  2.1558911243597535e-03
    asset[1]  asset[1]  7.7724493896897839e-02
    asset[1]  asset[2]  2.9729439706748489e-02
    asset[2]  asset[1]  2.9729439706748489e-02
    asset[1]  asset[3]  -1.1547572214194215e-02
    asset[3]  asset[1]  -1.1547572214194215e-02
    asset[1]  asset[4]  7.7948752000784521e-02
    asset[4]  asset[1]  7.7948752000784521e-02
    asset[1]  asset[5]  1.7249194452374616e-02
    asset[5]  asset[1]  1.7249194452374616e-02
    asset[1]  asset[6]  -7.6478274207832254e-03
    asset[6]  asset[1]  -7.6478274207832254e-03
    asset[1]  asset[7]  -5.7756487347780258e-02
    asset[7]  asset[1]  -5.7756487347780258e-02
    asset[1]  asset[8]  5.3635026214855025e-02
    asset[8]  asset[1]  5.3635026214855025e-02
    asset[1]  asset[9]  1.3944237363617388e-02
    asset[9]  asset[1]  1.3944237363617388e-02
    asset[2]  asset[2]  3.2202977728646373e-02
    asset[2]  asset[3]  -1.0480545048461382e-02
    asset[3]  asset[2]  -1.0480545048461382e-02
    asset[2]  asset[4]  5.4580149665453478e-02
    asset[4]  asset[2]  5.4580149665453478e-02
    asset[2]  asset[5]  -3.8525030051293013e-02
    asset[5]  asset[2]  -3.8525030051293013e-02
    asset[2]  asset[6]  2.1475669633853774e-02
    asset[6]  asset[2]  2.1475669633853774e-02
    asset[2]  asset[7]  -5.8972149832830167e-02
    asset[7]  asset[2]  -5.8972149832830167e-02
    asset[2]  asset[8]  4.1074178946995672e-02
    asset[8]  asset[2]  4.1074178946995672e-02
    asset[2]  asset[9]  1.8136597308044282e-02
    asset[9]  asset[2]  1.8136597308044282e-02
    asset[3]  asset[3]  3.0412295670514160e-02
    asset[3]  asset[4]  -2.5751218287555205e-03
    asset[4]  asset[3]  -2.5751218287555205e-03
    asset[3]  asset[5]  2.3054638325378449e-02
    asset[5]  asset[3]  2.3054638325378449e-02
    asset[3]  asset[6]  7.2336759486926246e-03
    asset[6]  asset[3]  7.2336759486926246e-03
    asset[3]  asset[7]  6.2152296229759014e-04
    asset[7]  asset[3]  6.2152296229759014e-04
    asset[3]  asset[8]  -1.4208120589449568e-02
    asset[8]  asset[3]  -1.4208120589449568e-02
    asset[3]  asset[9]  7.2351264017458663e-03
    asset[9]  asset[3]  7.2351264017458663e-03
    asset[4]  asset[4]  1.1767243355966399e-01
    asset[4]  asset[5]  -2.8343177189891787e-02
    asset[5]  asset[4]  -2.8343177189891787e-02
    asset[4]  asset[6]  2.8712512813029618e-02
    asset[6]  asset[4]  2.8712512813029618e-02
    asset[4]  asset[7]  -1.1163943075342933e-01
    asset[7]  asset[4]  -1.1163943075342933e-01
    asset[4]  asset[8]  7.7834466655868725e-02
    asset[8]  asset[4]  7.7834466655868725e-02
    asset[4]  asset[9]  3.5412741675909229e-02
    asset[9]  asset[4]  3.5412741675909229e-02
    asset[5]  asset[5]  1.0814966234719293e-01
    asset[5]  asset[6]  -4.9373291066907701e-02
    asset[6]  asset[5]  -4.9373291066907701e-02
    asset[5]  asset[7]  6.0671565279171322e-02
    asset[7]  asset[5]  6.0671565279171322e-02
    asset[5]  asset[8]  -3.3145174101415743e-02
    asset[8]  asset[5]  -3.3145174101415743e-02
    asset[5]  asset[9]  -2.1284816614006857e-02
    asset[9]  asset[5]  -2.1284816614006857e-02
    asset[6]  asset[6]  3.6914204187372054e-02
    asset[6]  asset[7]  -4.9358248528040598e-02
    asset[7]  asset[6]  -4.9358248528040598e-02
    asset[6]  asset[8]  1.9148604208520326e-02
    asset[8]  asset[6]  1.9148604208520326e-02
    asset[6]  asset[9]  2.3187465042727270e-02
    asset[9]  asset[6]  2.3187465042727270e-02
    asset[7]  asset[7]  1.2765359959912900e-01
    asset[7]  asset[8]  -7.7209720284304131e-02
    asset[8]  asset[7]  -7.7209720284304131e-02
    asset[7]  asset[9]  -4.9737274100431356e-02
    asset[9]  asset[7]  -4.9737274100431356e-02
    asset[8]  asset[8]  5.7502660339500682e-02
    asset[8]  asset[9]  2.3477503392529901e-02
    asset[9]  asset[8]  2.3477503392529901e-02
    asset[9]  asset[9]  2.5758017477807389e-02
QCMATRIX   fixed_risk
    asset[0]  asset[0]  6.0504186754935187e-04
    asset[1]  asset[1]  7.0295224142873942e-03
    asset[2]  asset[2]  2.9276910744952967e-03
    asset[3]  asset[3]  3.0481878665475819e-03
    asset[4]  asset[4]  1.3821078134378571e-02
    asset[5]  asset[5]  1.2003642453198706e-02
    asset[6]  asset[6]  3.0146138170695372e-03
    asset[7]  asset[7]  1.3961419606549334e-02
    asset[8]  asset[8]  5.9372477726112377e-03
    asset[9]  asset[9]  2.2895419884841300e-03
ENDATA
